
  19    0


   0  13 2 3 4 5 6 7 8 9 14 15 16 17 18 
   8   3 13 11 10 
   3   2 12 10 
  10   2 11 10 
   5   2 11 10 
   3   1 10 
   3   1 10 
   2   1 10 
   7   1 10 
   2   1 19
   2   1 19
   3   1 19
   6   1 19
   6   1 19
   7   1 19
   5   1 19
   2   1 19
   2   1 19
   0   0 
